32      4       
12      22      11      16      
0       0       0       0       0       3       2       3       4       
3       0       0       1       0       3       6       8       25      
8       8       0       0       0       1       31      
6       0       0       0       9       3       5       9       13      
5       0       6       0       0       3       6       7       23      
4       0       0       0       9       3       16      17      22      
1       3       0       0       0       3       11      16      28      
6       0       0       0       7       3       9       15      21      
10      0       5       0       0       2       10      24      
2       0       0       0       1       3       17      19      22      
5       0       0       5       0       1       12      
3       6       0       0       0       2       19      27      
8       4       0       0       0       3       14      20      26      
7       0       4       0       0       2       17      29      
1       5       0       0       0       1       29      
3       0       0       0       3       2       18      26      
2       3       0       0       0       3       18      27      31      
8       0       3       0       0       1       30      
4       0       9       0       0       1       30      
8       0       2       0       0       1       21      
2       0       10      0       0       2       22      24      
3       0       7       0       0       1       31      
10      0       0       0       1       2       24      25      
7       0       0       1       0       1       28      
8       0       0       0       7       2       26      28      
2       0       0       0       4       1       27      
10      0       3       0       0       1       30      
5       0       0       9       0       1       29      
1       9       0       0       0       1       32      
1       0       0       3       0       1       32      
9       0       0       2       0       1       32      
0       0       0       0       0       0       